<?xml version = "1.0" encoding="UTF-8" standalone="yes"?>
<CPLEXSolution version="1.2">
 <header
   problemName="linear_programming/inst10.lp"
   solutionName="incumbent"
   solutionIndex="-1"
   objectiveValue="40382.653718000001"
   solutionTypeValue="3"
   solutionTypeString="primal"
   solutionStatusValue="101"
   solutionStatusString="integer optimal solution"
   solutionMethodString="mip"
   primalFeasible="1"
   dualFeasible="1"
   MIPNodes="0"
   MIPIterations="200"
   writeLevel="1"/>
 <quality
   epInt="1.0000000000000001e-05"
   epRHS="9.9999999999999995e-07"
   maxIntInfeas="0"
   maxPrimalInfeas="3.637978807091713e-12"
   maxX="40382.653718000001"
   maxSlack="40382.653718000001"/>
 <linearConstraints>
  <constraint name="c1" index="0" slack="0"/>
  <constraint name="c2" index="1" slack="0"/>
  <constraint name="c3" index="2" slack="0"/>
  <constraint name="c4" index="3" slack="0"/>
  <constraint name="c5" index="4" slack="0"/>
  <constraint name="c6" index="5" slack="0"/>
  <constraint name="c7" index="6" slack="0"/>
  <constraint name="c8" index="7" slack="0"/>
  <constraint name="c9" index="8" slack="0"/>
  <constraint name="c10" index="9" slack="0"/>
  <constraint name="c11" index="10" slack="0"/>
  <constraint name="c12" index="11" slack="0"/>
  <constraint name="c13" index="12" slack="0"/>
  <constraint name="c14" index="13" slack="0"/>
  <constraint name="c15" index="14" slack="1"/>
  <constraint name="c16" index="15" slack="0"/>
  <constraint name="c17" index="16" slack="0"/>
  <constraint name="c18" index="17" slack="0"/>
  <constraint name="c19" index="18" slack="0"/>
  <constraint name="c20" index="19" slack="0"/>
  <constraint name="c21" index="20" slack="0"/>
  <constraint name="c22" index="21" slack="0"/>
  <constraint name="c23" index="22" slack="0"/>
  <constraint name="c24" index="23" slack="0"/>
  <constraint name="c25" index="24" slack="1"/>
  <constraint name="c26" index="25" slack="0"/>
  <constraint name="c27" index="26" slack="0"/>
  <constraint name="c28" index="27" slack="0"/>
  <constraint name="c29" index="28" slack="0"/>
  <constraint name="c30" index="29" slack="0"/>
  <constraint name="c31" index="30" slack="0"/>
  <constraint name="c32" index="31" slack="0"/>
  <constraint name="c33" index="32" slack="0"/>
  <constraint name="c34" index="33" slack="0"/>
  <constraint name="c35" index="34" slack="1"/>
  <constraint name="c36" index="35" slack="0"/>
  <constraint name="c37" index="36" slack="0"/>
  <constraint name="c38" index="37" slack="0"/>
  <constraint name="c39" index="38" slack="0"/>
  <constraint name="c40" index="39" slack="0"/>
  <constraint name="c41" index="40" slack="0"/>
  <constraint name="c42" index="41" slack="0"/>
  <constraint name="c43" index="42" slack="1"/>
  <constraint name="c44" index="43" slack="0"/>
  <constraint name="c45" index="44" slack="0"/>
  <constraint name="c46" index="45" slack="0"/>
  <constraint name="c47" index="46" slack="0"/>
  <constraint name="c48" index="47" slack="0"/>
  <constraint name="c49" index="48" slack="0"/>
  <constraint name="c50" index="49" slack="0"/>
  <constraint name="c51" index="50" slack="0"/>
  <constraint name="c52" index="51" slack="0"/>
  <constraint name="c53" index="52" slack="1"/>
  <constraint name="c54" index="53" slack="0"/>
  <constraint name="c55" index="54" slack="0"/>
  <constraint name="c56" index="55" slack="0"/>
  <constraint name="c57" index="56" slack="0"/>
  <constraint name="c58" index="57" slack="0"/>
  <constraint name="c59" index="58" slack="0"/>
  <constraint name="c60" index="59" slack="0"/>
  <constraint name="c61" index="60" slack="0"/>
  <constraint name="c62" index="61" slack="0"/>
  <constraint name="c63" index="62" slack="0"/>
  <constraint name="c64" index="63" slack="0"/>
  <constraint name="c65" index="64" slack="1"/>
  <constraint name="c66" index="65" slack="0"/>
  <constraint name="c67" index="66" slack="0"/>
  <constraint name="c68" index="67" slack="0"/>
  <constraint name="c69" index="68" slack="0"/>
  <constraint name="c70" index="69" slack="0"/>
  <constraint name="c71" index="70" slack="0"/>
  <constraint name="c72" index="71" slack="0"/>
  <constraint name="c73" index="72" slack="1"/>
  <constraint name="c74" index="73" slack="0"/>
  <constraint name="c75" index="74" slack="0"/>
  <constraint name="c76" index="75" slack="0"/>
  <constraint name="c77" index="76" slack="0"/>
  <constraint name="c78" index="77" slack="0"/>
  <constraint name="c79" index="78" slack="0"/>
  <constraint name="c80" index="79" slack="0"/>
  <constraint name="c81" index="80" slack="0"/>
  <constraint name="c82" index="81" slack="0"/>
  <constraint name="c83" index="82" slack="1"/>
  <constraint name="c84" index="83" slack="0"/>
  <constraint name="c85" index="84" slack="0"/>
  <constraint name="c86" index="85" slack="0"/>
  <constraint name="c87" index="86" slack="0"/>
  <constraint name="c88" index="87" slack="0"/>
  <constraint name="c89" index="88" slack="0"/>
  <constraint name="c90" index="89" slack="0"/>
  <constraint name="c91" index="90" slack="0"/>
  <constraint name="c92" index="91" slack="0"/>
  <constraint name="c93" index="92" slack="1"/>
  <constraint name="c94" index="93" slack="0"/>
  <constraint name="c95" index="94" slack="0"/>
  <constraint name="c96" index="95" slack="0"/>
  <constraint name="c97" index="96" slack="0"/>
  <constraint name="c98" index="97" slack="0"/>
  <constraint name="c99" index="98" slack="0"/>
  <constraint name="c100" index="99" slack="0"/>
  <constraint name="c101" index="100" slack="0"/>
  <constraint name="c102" index="101" slack="0"/>
  <constraint name="c103" index="102" slack="1"/>
  <constraint name="c104" index="103" slack="0"/>
  <constraint name="c105" index="104" slack="0"/>
  <constraint name="c106" index="105" slack="0"/>
  <constraint name="c107" index="106" slack="0"/>
  <constraint name="c108" index="107" slack="0"/>
  <constraint name="c109" index="108" slack="0"/>
  <constraint name="c110" index="109" slack="0"/>
  <constraint name="c111" index="110" slack="0"/>
  <constraint name="c112" index="111" slack="-8419.9294520000003"/>
  <constraint name="c113" index="112" slack="-5047.8317150000003"/>
  <constraint name="c114" index="113" slack="-4496.1303160000007"/>
  <constraint name="c115" index="114" slack="-9884.201820000002"/>
  <constraint name="c116" index="115" slack="-14666.185689999998"/>
  <constraint name="c117" index="116" slack="-6187.7609320000047"/>
  <constraint name="c118" index="117" slack="-8273.3362510000006"/>
  <constraint name="c119" index="118" slack="-6468.895371999999"/>
  <constraint name="c120" index="119" slack="0"/>
  <constraint name="c121" index="120" slack="-4636.8138150000013"/>
  <constraint name="c122" index="121" slack="-8419.9294520000003"/>
  <constraint name="c123" index="122" slack="-5047.8317150000003"/>
  <constraint name="c124" index="123" slack="0"/>
  <constraint name="c125" index="124" slack="-9884.201820000002"/>
  <constraint name="c126" index="125" slack="-14666.185689999998"/>
  <constraint name="c127" index="126" slack="-6187.7609320000047"/>
  <constraint name="c128" index="127" slack="-8273.3362510000006"/>
  <constraint name="c129" index="128" slack="-6468.895371999999"/>
  <constraint name="c130" index="129" slack="0"/>
  <constraint name="c131" index="130" slack="-4636.8138150000013"/>
  <constraint name="c132" index="131" slack="-8419.9294520000003"/>
  <constraint name="c133" index="132" slack="-5047.8317150000003"/>
  <constraint name="c134" index="133" slack="-20191.326859000001"/>
  <constraint name="c135" index="134" slack="-9884.201820000002"/>
  <constraint name="c136" index="135" slack="-14666.185689999998"/>
  <constraint name="c137" index="136" slack="-6187.7609320000047"/>
  <constraint name="c138" index="137" slack="-8273.3362510000006"/>
  <constraint name="c139" index="138" slack="-6468.895371999999"/>
  <constraint name="c140" index="139" slack="0"/>
  <constraint name="c141" index="140" slack="-4636.8138150000013"/>
  <constraint name="c142" index="141" slack="-8419.9294520000003"/>
  <constraint name="c143" index="142" slack="-5047.8317150000003"/>
  <constraint name="c144" index="143" slack="-20191.326859000001"/>
  <constraint name="c145" index="144" slack="-9884.201820000002"/>
  <constraint name="c146" index="145" slack="-199.5717629999981"/>
  <constraint name="c147" index="146" slack="-6187.7609320000047"/>
  <constraint name="c148" index="147" slack="-8273.3362510000006"/>
  <constraint name="c149" index="148" slack="-6468.895371999999"/>
  <constraint name="c150" index="149" slack="0"/>
  <constraint name="c151" index="150" slack="-4636.8138150000013"/>
  <constraint name="c152" index="151" slack="-8419.9294520000003"/>
  <constraint name="c153" index="152" slack="-5047.8317150000003"/>
  <constraint name="c154" index="153" slack="-20191.326859000001"/>
  <constraint name="c155" index="154" slack="-9884.201820000002"/>
  <constraint name="c156" index="155" slack="-14666.185689999998"/>
  <constraint name="c157" index="156" slack="-6187.7609320000047"/>
  <constraint name="c158" index="157" slack="-8273.3362510000006"/>
  <constraint name="c159" index="158" slack="-6468.895371999999"/>
  <constraint name="c160" index="159" slack="0"/>
  <constraint name="c161" index="160" slack="-4636.8138150000013"/>
  <constraint name="c162" index="161" slack="-8419.9294520000003"/>
  <constraint name="c163" index="162" slack="-5047.8317150000003"/>
  <constraint name="c164" index="163" slack="-1519.9056230000024"/>
  <constraint name="c165" index="164" slack="-9884.201820000002"/>
  <constraint name="c166" index="165" slack="-14666.185689999998"/>
  <constraint name="c167" index="166" slack="-6187.7609320000047"/>
  <constraint name="c168" index="167" slack="-8273.3362510000006"/>
  <constraint name="c169" index="168" slack="-6468.895371999999"/>
  <constraint name="c170" index="169" slack="0"/>
  <constraint name="c171" index="170" slack="-4636.8138150000013"/>
  <constraint name="c172" index="171" slack="-8419.9294520000003"/>
  <constraint name="c173" index="172" slack="-5047.8317150000003"/>
  <constraint name="c174" index="173" slack="-20191.326859000001"/>
  <constraint name="c175" index="174" slack="-9884.201820000002"/>
  <constraint name="c176" index="175" slack="-6038.9952869999979"/>
  <constraint name="c177" index="176" slack="-6187.7609320000047"/>
  <constraint name="c178" index="177" slack="-8273.3362510000006"/>
  <constraint name="c179" index="178" slack="-6468.895371999999"/>
  <constraint name="c180" index="179" slack="0"/>
  <constraint name="c181" index="180" slack="-4636.8138150000013"/>
  <constraint name="c182" index="181" slack="-8419.9294520000003"/>
  <constraint name="c183" index="182" slack="-5047.8317150000003"/>
  <constraint name="c184" index="183" slack="-20191.326859000001"/>
  <constraint name="c185" index="184" slack="-9884.201820000002"/>
  <constraint name="c186" index="185" slack="-1618.8154309999991"/>
  <constraint name="c187" index="186" slack="-6187.7609320000047"/>
  <constraint name="c188" index="187" slack="-8273.3362510000006"/>
  <constraint name="c189" index="188" slack="-6468.895371999999"/>
  <constraint name="c190" index="189" slack="0"/>
  <constraint name="c191" index="190" slack="-4636.8138150000013"/>
  <constraint name="c192" index="191" slack="-8419.9294520000003"/>
  <constraint name="c193" index="192" slack="-5047.8317150000003"/>
  <constraint name="c194" index="193" slack="-20191.326859000001"/>
  <constraint name="c195" index="194" slack="-9884.201820000002"/>
  <constraint name="c196" index="195" slack="-550.37943699999778"/>
  <constraint name="c197" index="196" slack="-6187.7609320000047"/>
  <constraint name="c198" index="197" slack="-8273.3362510000006"/>
  <constraint name="c199" index="198" slack="-6468.895371999999"/>
  <constraint name="c200" index="199" slack="0"/>
  <constraint name="c201" index="200" slack="-4636.8138150000013"/>
  <constraint name="c202" index="201" slack="-8419.9294520000003"/>
  <constraint name="c203" index="202" slack="-5047.8317150000003"/>
  <constraint name="c204" index="203" slack="-20191.326859000001"/>
  <constraint name="c205" index="204" slack="-9884.201820000002"/>
  <constraint name="c206" index="205" slack="-507.38939899999787"/>
  <constraint name="c207" index="206" slack="-6187.7609320000047"/>
  <constraint name="c208" index="207" slack="-8273.3362510000006"/>
  <constraint name="c209" index="208" slack="-6468.895371999999"/>
  <constraint name="c210" index="209" slack="0"/>
  <constraint name="c211" index="210" slack="-4636.8138150000013"/>
  <constraint name="c212" index="211" slack="-23542.794814000001"/>
  <constraint name="c213" index="212" slack="-11944.100699000001"/>
  <constraint name="c214" index="213" slack="-30286.990288000001"/>
  <constraint name="c215" index="214" slack="0"/>
  <constraint name="c216" index="215" slack="0"/>
  <constraint name="c217" index="216" slack="0"/>
  <constraint name="c218" index="217" slack="-4642.9335780000001"/>
  <constraint name="c219" index="218" slack="-16004.074513"/>
  <constraint name="c220" index="219" slack="1.8189894035458565e-12"/>
  <constraint name="c221" index="220" slack="-20614.250077999997"/>
  <constraint name="c222" index="221" slack="-11.571974000002228"/>
  <constraint name="c223" index="222" slack="-2253.2295400000039"/>
  <constraint name="c224" index="223" slack="-1.8189894035458565e-12"/>
  <constraint name="c225" index="224" slack="-4982.3057630000003"/>
  <constraint name="c226" index="225" slack="-11050.282338000005"/>
  <constraint name="c227" index="226" slack="-2996.4711489999972"/>
  <constraint name="c228" index="227" slack="-15037.148640999996"/>
  <constraint name="c229" index="228" slack="3.637978807091713e-12"/>
  <constraint name="c230" index="229" slack="-18760.154908999993"/>
  <constraint name="c231" index="230" slack="-7260.980881999998"/>
  <constraint name="c232" index="231" slack="-28007.131853999992"/>
  <constraint name="c233" index="232" slack="-5.9145060000009835"/>
  <constraint name="c234" index="233" slack="-4655.733064"/>
  <constraint name="c235" index="234" slack="0"/>
  <constraint name="c236" index="235" slack="-8892.6063549999981"/>
  <constraint name="c237" index="236" slack="-10972.738975000002"/>
  <constraint name="c238" index="237" slack="-14111.894300999997"/>
  <constraint name="c239" index="238" slack="-23835.981216"/>
  <constraint name="c240" index="239" slack="-936.33220900000379"/>
  <constraint name="c241" index="240" slack="-9796.8708600000027"/>
  <constraint name="c242" index="241" slack="-1.8189894035458565e-12"/>
  <constraint name="c243" index="242" slack="-14373.49012"/>
  <constraint name="c244" index="243" slack="-9462.0449610000032"/>
  <constraint name="c245" index="244" slack="-21769.029832999997"/>
  <constraint name="c246" index="245" slack="-19052.335707000002"/>
  <constraint name="c247" index="246" slack="-27444.862974000003"/>
  <constraint name="c248" index="247" slack="-5098.3517790000005"/>
  <constraint name="c249" index="248" slack="-6648.9736530000009"/>
  <constraint name="c250" index="249" slack="-4534.8804440000004"/>
  <constraint name="c251" index="250" slack="-10398.499822999998"/>
  <constraint name="c252" index="251" slack="-15129.613338000003"/>
  <constraint name="c253" index="252" slack="-15178.260962999997"/>
  <constraint name="c254" index="253" slack="-24902.268357000001"/>
  <constraint name="c255" index="254" slack="-20295.059669000002"/>
  <constraint name="c256" index="255" slack="-40382.653718000001"/>
  <constraint name="c257" index="256" slack="-301.35650499999974"/>
  <constraint name="c258" index="257" slack="-7779.5550780000012"/>
  <constraint name="c259" index="258" slack="0"/>
  <constraint name="c260" index="259" slack="-12389.501860999999"/>
  <constraint name="c261" index="260" slack="-10460.556995000001"/>
  <constraint name="c262" index="261" slack="-19623.727425999998"/>
  <constraint name="c263" index="262" slack="-22446.357936"/>
  <constraint name="c264" index="263" slack="-25261.921782000001"/>
  <constraint name="c265" index="264" slack="-24889.356064"/>
  <constraint name="c266" index="265" slack="-31109.026087999999"/>
 </linearConstraints>
 <variables>
  <variable name="z" index="0" value="40382.653718000001"/>
  <variable name="X_1_1" index="1" value="0"/>
  <variable name="X_1_2" index="2" value="0"/>
  <variable name="X_1_3" index="3" value="1"/>
  <variable name="X_1_4" index="4" value="0"/>
  <variable name="X_1_5" index="5" value="0"/>
  <variable name="X_1_6" index="6" value="0"/>
  <variable name="X_1_7" index="7" value="0"/>
  <variable name="X_1_8" index="8" value="0"/>
  <variable name="X_1_9" index="9" value="0"/>
  <variable name="X_1_10" index="10" value="0"/>
  <variable name="X_2_1" index="11" value="0"/>
  <variable name="X_2_2" index="12" value="0"/>
  <variable name="X_2_3" index="13" value="1"/>
  <variable name="X_2_4" index="14" value="0"/>
  <variable name="X_2_5" index="15" value="0"/>
  <variable name="X_2_6" index="16" value="-0"/>
  <variable name="X_2_7" index="17" value="0"/>
  <variable name="X_2_8" index="18" value="0"/>
  <variable name="X_2_9" index="19" value="0"/>
  <variable name="X_2_10" index="20" value="0"/>
  <variable name="X_3_1" index="21" value="-0"/>
  <variable name="X_3_2" index="22" value="-0"/>
  <variable name="X_3_3" index="23" value="1"/>
  <variable name="X_3_4" index="24" value="0"/>
  <variable name="X_3_5" index="25" value="-0"/>
  <variable name="X_3_6" index="26" value="-0"/>
  <variable name="X_3_7" index="27" value="-0"/>
  <variable name="X_3_8" index="28" value="0"/>
  <variable name="X_3_9" index="29" value="-0"/>
  <variable name="X_3_10" index="30" value="-0"/>
  <variable name="X_4_1" index="31" value="-0"/>
  <variable name="X_4_2" index="32" value="-0"/>
  <variable name="X_4_3" index="33" value="-0"/>
  <variable name="X_4_4" index="34" value="0"/>
  <variable name="X_4_5" index="35" value="1"/>
  <variable name="X_4_6" index="36" value="0"/>
  <variable name="X_4_7" index="37" value="0"/>
  <variable name="X_4_8" index="38" value="0"/>
  <variable name="X_4_9" index="39" value="-0"/>
  <variable name="X_4_10" index="40" value="0"/>
  <variable name="X_5_1" index="41" value="-0"/>
  <variable name="X_5_2" index="42" value="-0"/>
  <variable name="X_5_3" index="43" value="0"/>
  <variable name="X_5_4" index="44" value="-0"/>
  <variable name="X_5_5" index="45" value="1"/>
  <variable name="X_5_6" index="46" value="0"/>
  <variable name="X_5_7" index="47" value="0"/>
  <variable name="X_5_8" index="48" value="0"/>
  <variable name="X_5_9" index="49" value="-0"/>
  <variable name="X_5_10" index="50" value="-0"/>
  <variable name="X_6_1" index="51" value="-0"/>
  <variable name="X_6_2" index="52" value="-0"/>
  <variable name="X_6_3" index="53" value="1"/>
  <variable name="X_6_4" index="54" value="-0"/>
  <variable name="X_6_5" index="55" value="-0"/>
  <variable name="X_6_6" index="56" value="0"/>
  <variable name="X_6_7" index="57" value="0"/>
  <variable name="X_6_8" index="58" value="0"/>
  <variable name="X_6_9" index="59" value="-0"/>
  <variable name="X_6_10" index="60" value="0"/>
  <variable name="X_7_1" index="61" value="-0"/>
  <variable name="X_7_2" index="62" value="-0"/>
  <variable name="X_7_3" index="63" value="0"/>
  <variable name="X_7_4" index="64" value="-0"/>
  <variable name="X_7_5" index="65" value="1"/>
  <variable name="X_7_6" index="66" value="0"/>
  <variable name="X_7_7" index="67" value="-0"/>
  <variable name="X_7_8" index="68" value="0"/>
  <variable name="X_7_9" index="69" value="-0"/>
  <variable name="X_7_10" index="70" value="-0"/>
  <variable name="X_8_1" index="71" value="-0"/>
  <variable name="X_8_2" index="72" value="-0"/>
  <variable name="X_8_3" index="73" value="0"/>
  <variable name="X_8_4" index="74" value="-0"/>
  <variable name="X_8_5" index="75" value="1"/>
  <variable name="X_8_6" index="76" value="-0"/>
  <variable name="X_8_7" index="77" value="-0"/>
  <variable name="X_8_8" index="78" value="-0"/>
  <variable name="X_8_9" index="79" value="-0"/>
  <variable name="X_8_10" index="80" value="-0"/>
  <variable name="X_9_1" index="81" value="0"/>
  <variable name="X_9_2" index="82" value="0"/>
  <variable name="X_9_3" index="83" value="-0"/>
  <variable name="X_9_4" index="84" value="0"/>
  <variable name="X_9_5" index="85" value="1"/>
  <variable name="X_9_6" index="86" value="0"/>
  <variable name="X_9_7" index="87" value="0"/>
  <variable name="X_9_8" index="88" value="0"/>
  <variable name="X_9_9" index="89" value="-0"/>
  <variable name="X_9_10" index="90" value="0"/>
  <variable name="X_10_1" index="91" value="-0"/>
  <variable name="X_10_2" index="92" value="-0"/>
  <variable name="X_10_3" index="93" value="0"/>
  <variable name="X_10_4" index="94" value="-0"/>
  <variable name="X_10_5" index="95" value="1"/>
  <variable name="X_10_6" index="96" value="-0"/>
  <variable name="X_10_7" index="97" value="-0"/>
  <variable name="X_10_8" index="98" value="-0"/>
  <variable name="X_10_9" index="99" value="-0"/>
  <variable name="X_10_10" index="100" value="-0"/>
  <variable name="r_1" index="101" value="8419.9294520000003"/>
  <variable name="r_2" index="102" value="5047.8317150000003"/>
  <variable name="r_3" index="103" value="20191.326859000001"/>
  <variable name="r_4" index="104" value="9884.201820000002"/>
  <variable name="r_5" index="105" value="14666.185689999998"/>
  <variable name="r_6" index="106" value="6187.7609320000047"/>
  <variable name="r_7" index="107" value="8273.3362510000006"/>
  <variable name="r_8" index="108" value="6468.895371999999"/>
  <variable name="r_9" index="109" value="0"/>
  <variable name="r_10" index="110" value="4636.8138150000013"/>
 </variables>
 <objectiveValues>
  <objective index="0" name="obj" value="40382.653718000001"/>
 </objectiveValues>
</CPLEXSolution>
